set VV := 0 1 2 3 4 5 6 7 8 9 10 11 12 13 14 15 16 17 18 19 20 ;
set VS := 0 1 2 3 4 5 6 7 8 9 10 11 12 13 14 15 16 17 18 19 20 21 22 23 24 25 26 27 28 29 30 31 32 33 34 35 36 37 38 39 40 41 42 43 44 45 ;
param cv := 
0 14
1 10
2 18
3 14
4 15
5 20
6 20
7 19
8 25
9 15
10 13
11 17
12 17
13 15
14 14
15 18
16 19
17 25
18 16
19 14
20 18
;
param cs := 
0 28
1 34
2 27
3 35
4 29
5 32
6 29
7 38
8 35
9 28
10 31
11 26
12 39
13 33
14 37
15 23
16 29
17 21
18 27
19 24
20 23
21 37
22 23
23 39
24 40
25 30
26 22
27 35
28 25
29 30
30 35
31 36
32 26
33 28
34 20
35 27
36 25
37 36
38 39
39 27
40 37
41 38
42 39
43 31
44 27
45 28
;
param bv:	 0 1 2 3 4 5 6 7 8 9 10 11 12 13 14 15 16 17 18 19 20 := 
		0 0 0 0 0 0 0 0 0 0 0 0 0 0 17 0 0 0 0 0 0 0 
		1 0 0 0 0 0 0 0 0 0 0 0 0 22 0 0 0 0 0 0 0 0 
		2 0 0 0 0 0 0 0 0 0 0 0 0 0 0 0 20 0 0 0 13 10 
		3 0 0 0 0 0 0 0 0 0 0 0 0 0 0 0 0 0 0 12 0 0 
		4 0 0 0 0 0 18 0 0 0 0 0 0 0 19 0 0 0 0 0 0 0 
		5 0 0 0 0 0 0 0 0 25 0 0 0 0 0 0 0 20 21 0 0 0 
		6 0 0 0 0 0 0 0 0 0 0 0 19 0 0 0 0 11 0 0 0 0 
		7 0 0 0 0 0 0 0 0 0 0 0 0 0 0 0 0 0 0 0 0 23 
		8 0 0 0 0 0 0 0 0 0 0 0 0 11 0 0 11 0 0 20 0 0 
		9 0 0 0 0 0 0 0 0 0 0 0 10 0 0 0 0 0 0 0 0 0 
		10 0 0 0 0 0 0 0 0 0 0 0 0 0 0 0 13 0 0 0 0 0 
		11 0 0 0 0 0 0 0 0 0 0 0 0 0 0 0 0 0 0 0 0 0 
		12 0 0 0 0 0 0 0 0 0 0 0 0 0 16 0 0 0 0 15 0 0 
		13 0 0 0 0 0 0 0 0 0 0 0 0 0 0 0 0 0 0 0 0 0 
		14 0 0 0 0 0 0 0 0 0 0 0 0 0 0 0 10 0 0 0 0 0 
		15 0 0 0 0 0 0 0 0 0 0 0 0 0 0 0 0 0 0 0 0 0 
		16 0 0 0 0 0 0 0 0 0 0 0 0 0 0 0 0 0 0 0 0 0 
		17 0 0 0 0 0 0 0 0 0 0 0 0 0 0 0 0 0 0 0 0 0 
		18 0 0 0 0 0 0 0 0 0 0 0 0 0 0 0 0 0 0 0 0 0 
		19 0 0 0 0 0 0 0 0 0 0 0 0 0 0 0 0 0 0 0 0 0 
		20 0 0 0 0 0 0 0 0 0 0 0 0 0 0 0 0 0 0 0 0 0 
;
param bs:	 0 1 2 3 4 5 6 7 8 9 10 11 12 13 14 15 16 17 18 19 20 21 22 23 24 25 26 27 28 29 30 31 32 33 34 35 36 37 38 39 40 41 42 43 44 45 := 
		0 0 0 0 0 0 0 0 0 0 0 0 0 0 0 0 0 0 0 0 0 0 0 0 0 0 0 20 0 0 0 28 0 0 0 0 0 0 0 0 0 0 0 0 0 0 0 
		1 0 0 0 0 0 0 0 0 0 0 0 0 0 0 0 0 0 0 0 0 0 0 0 0 0 0 31 0 0 21 0 0 0 28 0 0 0 0 30 0 0 0 0 0 0 0 
		2 0 0 0 0 0 0 22 0 0 0 0 0 0 31 0 0 0 0 0 0 0 0 0 0 0 0 0 0 0 23 0 0 35 0 0 0 0 0 0 0 0 0 0 0 0 0 
		3 0 0 0 0 0 0 0 0 0 31 0 0 0 0 0 0 0 0 23 0 0 0 0 0 0 0 0 0 0 0 0 31 28 0 0 27 29 0 0 0 0 0 0 0 0 0 
		4 0 0 0 0 0 20 0 0 0 0 0 0 0 0 0 0 0 0 0 0 0 0 25 0 0 0 39 0 0 0 0 0 0 25 37 0 0 0 0 0 0 0 0 0 0 0 
		5 0 0 0 0 20 0 0 0 0 0 0 0 0 0 0 22 0 0 28 0 30 0 0 0 0 0 0 0 0 0 0 0 0 0 0 0 0 0 0 21 0 29 0 0 0 0 
		6 0 0 22 0 0 0 0 40 0 0 0 0 37 20 0 27 0 0 29 0 0 0 0 0 0 0 0 0 0 0 0 22 0 0 0 0 0 0 31 0 0 0 0 0 0 0 
		7 0 0 0 0 0 0 40 0 0 0 0 0 0 0 0 0 0 0 0 0 0 0 0 0 0 0 0 0 0 0 25 0 22 0 0 0 38 0 0 0 0 31 0 0 29 0 
		8 0 0 0 0 0 0 0 0 0 0 0 23 0 0 0 0 0 24 0 0 0 0 0 0 0 0 0 0 0 0 0 0 0 0 0 0 0 0 0 0 0 26 0 22 0 0 
		9 0 0 0 31 0 0 0 0 0 0 0 0 0 0 0 0 0 0 0 0 0 0 25 36 0 0 0 0 0 0 0 0 30 0 0 0 0 0 0 0 36 0 0 0 33 0 
		10 0 0 0 0 0 0 0 0 0 0 0 0 0 0 0 0 31 0 0 0 0 0 0 0 0 31 0 0 0 0 0 0 22 36 0 0 0 0 0 0 0 0 0 0 0 40 
		11 0 0 0 0 0 0 0 0 23 0 0 0 0 0 0 0 0 0 0 0 0 0 0 0 0 0 0 0 0 0 0 0 0 0 0 0 23 0 0 39 0 0 0 0 0 0 
		12 0 0 0 0 0 0 37 0 0 0 0 0 0 0 0 0 0 25 0 0 0 0 0 0 39 0 0 0 0 0 0 0 0 0 0 0 0 0 0 0 0 40 0 0 0 0 
		13 0 0 31 0 0 0 20 0 0 0 0 0 0 0 0 0 0 0 0 0 22 0 0 0 0 0 0 0 0 0 0 0 0 0 0 0 0 0 0 0 0 0 0 0 0 0 
		14 0 0 0 0 0 0 0 0 0 0 0 0 0 0 0 0 0 0 0 0 0 0 0 0 0 0 0 0 0 0 0 40 0 0 0 0 0 0 0 0 0 0 0 0 0 0 
		15 0 0 0 0 0 22 27 0 0 0 0 0 0 0 0 0 0 0 0 37 0 0 0 29 0 0 0 0 0 0 0 39 0 0 0 0 0 0 0 0 0 0 0 0 0 0 
		16 0 0 0 0 0 0 0 0 0 0 31 0 0 0 0 0 0 0 0 0 0 0 0 0 0 0 0 0 0 0 0 0 0 0 0 0 0 0 0 0 0 0 0 0 0 0 
		17 0 0 0 0 0 0 0 0 24 0 0 0 25 0 0 0 0 0 0 0 0 0 0 0 0 0 0 0 0 33 0 0 0 0 0 0 0 0 0 24 0 0 0 0 0 0 
		18 0 0 0 23 0 28 29 0 0 0 0 0 0 0 0 0 0 0 0 0 0 0 0 0 32 0 0 0 0 0 0 0 23 0 0 0 33 0 0 0 0 0 0 0 0 0 
		19 0 0 0 0 0 0 0 0 0 0 0 0 0 0 0 37 0 0 0 0 0 0 0 0 0 0 22 0 0 0 40 0 0 0 0 0 0 25 34 0 0 0 0 0 0 0 
		20 0 0 0 0 0 30 0 0 0 0 0 0 0 22 0 0 0 0 0 0 0 0 0 0 34 0 0 0 0 0 0 0 0 0 0 0 0 0 0 0 0 0 0 0 0 0 
		21 0 0 0 0 0 0 0 0 0 0 0 0 0 0 0 0 0 0 0 0 0 0 0 0 0 0 0 0 0 0 0 0 0 0 0 0 0 0 0 0 0 0 0 0 0 36 
		22 0 0 0 0 25 0 0 0 0 25 0 0 0 0 0 0 0 0 0 0 0 0 0 0 32 0 0 0 20 0 0 33 0 0 0 0 0 25 0 0 0 0 0 0 0 0 
		23 0 0 0 0 0 0 0 0 0 36 0 0 0 0 0 29 0 0 0 0 0 0 0 0 0 0 0 0 0 0 23 0 26 0 0 0 0 0 0 0 0 0 0 36 0 0 
		24 0 0 0 0 0 0 0 0 0 0 0 0 39 0 0 0 0 0 32 0 34 0 32 0 0 0 0 0 0 0 0 0 28 0 0 0 0 0 0 0 0 0 0 0 0 0 
		25 0 0 0 0 0 0 0 0 0 0 31 0 0 0 0 0 0 0 0 0 0 0 0 0 0 0 0 0 27 0 0 0 0 0 0 0 0 0 0 0 0 0 0 0 0 0 
		26 20 31 0 0 39 0 0 0 0 0 0 0 0 0 0 0 0 0 0 22 0 0 0 0 0 0 0 0 0 0 0 23 21 0 0 0 0 32 0 0 0 32 0 0 0 0 
		27 0 0 0 0 0 0 0 0 0 0 0 0 0 0 0 0 0 0 0 0 0 0 0 0 0 0 0 0 0 0 0 0 0 38 36 0 0 0 0 24 0 0 21 0 0 34 
		28 0 0 0 0 0 0 0 0 0 0 0 0 0 0 0 0 0 0 0 0 0 0 20 0 0 27 0 0 0 0 0 0 0 0 0 0 0 0 27 0 0 0 0 0 0 0 
		29 0 21 23 0 0 0 0 0 0 0 0 0 0 0 0 0 0 33 0 0 0 0 0 0 0 0 0 0 0 0 0 0 0 0 32 0 32 0 0 0 35 34 0 0 0 0 
		30 28 0 0 0 0 0 0 25 0 0 0 0 0 0 0 0 0 0 0 40 0 0 0 23 0 0 0 0 0 0 0 0 0 32 0 0 0 0 20 0 0 0 0 0 0 0 
		31 0 0 0 31 0 0 22 0 0 0 0 0 0 0 40 39 0 0 0 0 0 0 33 0 0 0 23 0 0 0 0 0 0 0 0 0 0 0 0 0 0 0 0 0 0 0 
		32 0 0 35 28 0 0 0 22 0 30 22 0 0 0 0 0 0 0 23 0 0 0 0 26 28 0 21 0 0 0 0 0 0 0 0 0 0 0 30 0 0 0 0 0 0 0 
		33 0 28 0 0 25 0 0 0 0 0 36 0 0 0 0 0 0 0 0 0 0 0 0 0 0 0 0 38 0 0 32 0 0 0 0 0 0 0 0 0 0 0 0 0 0 0 
		34 0 0 0 0 37 0 0 0 0 0 0 0 0 0 0 0 0 0 0 0 0 0 0 0 0 0 0 36 0 32 0 0 0 0 0 0 0 0 0 0 0 0 0 0 0 0 
		35 0 0 0 27 0 0 0 0 0 0 0 0 0 0 0 0 0 0 0 0 0 0 0 0 0 0 0 0 0 0 0 0 0 0 0 0 0 32 0 0 0 0 0 0 0 0 
		36 0 0 0 29 0 0 0 38 0 0 0 23 0 0 0 0 0 0 33 0 0 0 0 0 0 0 0 0 0 32 0 0 0 0 0 0 0 0 0 0 38 0 0 0 0 0 
		37 0 0 0 0 0 0 0 0 0 0 0 0 0 0 0 0 0 0 0 25 0 0 25 0 0 0 32 0 0 0 0 0 0 0 0 32 0 0 0 0 0 0 0 0 0 0 
		38 0 30 0 0 0 0 31 0 0 0 0 0 0 0 0 0 0 0 0 34 0 0 0 0 0 0 0 0 27 0 20 0 30 0 0 0 0 0 0 0 0 0 0 0 0 0 
		39 0 0 0 0 0 21 0 0 0 0 0 39 0 0 0 0 0 24 0 0 0 0 0 0 0 0 0 24 0 0 0 0 0 0 0 0 0 0 0 0 0 0 0 20 0 0 
		40 0 0 0 0 0 0 0 0 0 36 0 0 0 0 0 0 0 0 0 0 0 0 0 0 0 0 0 0 0 35 0 0 0 0 0 0 38 0 0 0 0 0 0 0 0 0 
		41 0 0 0 0 0 29 0 31 26 0 0 0 40 0 0 0 0 0 0 0 0 0 0 0 0 0 32 0 0 34 0 0 0 0 0 0 0 0 0 0 0 0 0 0 0 0 
		42 0 0 0 0 0 0 0 0 0 0 0 0 0 0 0 0 0 0 0 0 0 0 0 0 0 0 0 21 0 0 0 0 0 0 0 0 0 0 0 0 0 0 0 0 0 0 
		43 0 0 0 0 0 0 0 0 22 0 0 0 0 0 0 0 0 0 0 0 0 0 0 36 0 0 0 0 0 0 0 0 0 0 0 0 0 0 0 20 0 0 0 0 0 0 
		44 0 0 0 0 0 0 0 29 0 33 0 0 0 0 0 0 0 0 0 0 0 0 0 0 0 0 0 0 0 0 0 0 0 0 0 0 0 0 0 0 0 0 0 0 0 0 
		45 0 0 0 0 0 0 0 0 0 0 40 0 0 0 0 0 0 0 0 0 0 36 0 0 0 0 0 34 0 0 0 0 0 0 0 0 0 0 0 0 0 0 0 0 0 0 
;
